NAME : mEgtspf.pid30701.gtsp.225485961.tour
COMMENT : Length = 225485961
COMMENT : Found by LKH [Keld Helsgaun] Thu Mar  6 00:05:45 2025
TYPE : TOUR
DIMENSION : 132
TOUR_SECTION
1
32
29
30
31
63
64
61
62
80
77
78
79
52
49
50
51
119
120
117
118
86
87
88
85
59
60
57
58
131
132
129
130
4
96
93
94
95
27
28
25
26
10
20
17
18
19
7
14
15
16
13
112
109
110
111
54
55
56
53
9
108
105
106
107
113
114
115
116
11
44
41
42
43
124
121
122
123
68
65
66
67
127
128
125
126
74
75
76
73
100
97
98
99
92
89
90
91
24
21
22
23
2
3
101
102
103
104
12
40
37
38
39
81
82
83
84
46
47
48
45
6
70
71
72
69
5
33
34
35
36
8
-1
EOF
